2 trabalho/104350.txt
10
16

7 1 0 100
7 4 0 60
2 7 0 100
7 3 0 40
8 2 0 40
8 1 0 40
3 8 0 40
9 2 0 60
9 6 0 60
4 9 0 60
5 4 0 60
5 6 0 60
5 3 0 40
10 4 0 60
6 10 0 60
1 5 -1 1000
0
0
0
0
0
0
0
0
0
0

